p cnf 386 460
-20 -5 17 21 22 0
-20 -5 17 21 -22 0
-20 -5 17 -21 23 0
-20 -5 17 -21 -23 0
-18 -4 -6 24 25 0
-18 -4 -6 24 -25 0
-18 -4 -6 -24 26 0
-18 -4 -6 -24 -26 0
7 1 -4 27 28 0
7 1 -4 27 -28 0
7 1 -4 -27 29 0
7 1 -4 -27 -29 0
19 -1 6 30 31 0
19 -1 6 30 -31 0
19 -1 6 -30 32 0
19 -1 6 -30 -32 0
-16 -18 -1 33 34 0
-16 -18 -1 33 -34 0
-16 -18 -1 -33 35 0
-16 -18 -1 -33 -35 0
4 11 -2 36 37 0
4 11 -2 36 -37 0
4 11 -2 -36 38 0
4 11 -2 -36 -38 0
-10 -4 -3 39 40 0
-10 -4 -3 39 -40 0
-10 -4 -3 -39 41 0
-10 -4 -3 -39 -41 0
-8 4 -16 42 43 0
-8 4 -16 42 -43 0
-8 4 -16 -42 44 0
-8 4 -16 -42 -44 0
-10 9 -19 45 46 0
-10 9 -19 45 -46 0
-10 9 -19 -45 47 0
-10 9 -19 -45 -47 0
5 6 10 48 49 0
5 6 10 48 -49 0
5 6 10 -48 50 0
5 6 10 -48 -50 0
2 5 -12 51 52 0
2 5 -12 51 -52 0
2 5 -12 -51 53 0
2 5 -12 -51 -53 0
2 15 -1 54 55 0
2 15 -1 54 -55 0
2 15 -1 -54 56 0
2 15 -1 -54 -56 0
-20 17 -2 57 58 0
-20 17 -2 57 -58 0
-20 17 -2 -57 59 0
-20 17 -2 -57 -59 0
-13 -17 19 60 61 0
-13 -17 19 60 -61 0
-13 -17 19 -60 62 0
-13 -17 19 -60 -62 0
-3 16 -14 63 64 0
-3 16 -14 63 -64 0
-3 16 -14 -63 65 0
-3 16 -14 -63 -65 0
13 2 20 66 67 0
13 2 20 66 -67 0
13 2 20 -66 68 0
13 2 20 -66 -68 0
2 7 20 69 70 0
2 7 20 69 -70 0
2 7 20 -69 71 0
2 7 20 -69 -71 0
20 10 -6 72 73 0
20 10 -6 72 -73 0
20 10 -6 -72 74 0
20 10 -6 -72 -74 0
-12 16 10 75 76 0
-12 16 10 75 -76 0
-12 16 10 -75 77 0
-12 16 10 -75 -77 0
-19 10 -17 78 79 0
-19 10 -17 78 -79 0
-19 10 -17 -78 80 0
-19 10 -17 -78 -80 0
8 -15 19 81 82 0
8 -15 19 81 -82 0
8 -15 19 -81 83 0
8 -15 19 -81 -83 0
-12 1 -10 84 85 0
-12 1 -10 84 -85 0
-12 1 -10 -84 86 0
-12 1 -10 -84 -86 0
20 3 -9 87 88 0
20 3 -9 87 -88 0
20 3 -9 -87 89 0
20 3 -9 -87 -89 0
18 15 -8 90 91 0
18 15 -8 90 -91 0
18 15 -8 -90 92 0
18 15 -8 -90 -92 0
-9 4 6 93 94 0
-9 4 6 93 -94 0
-9 4 6 -93 95 0
-9 4 6 -93 -95 0
-4 -1 2 96 97 0
-4 -1 2 96 -97 0
-4 -1 2 -96 98 0
-4 -1 2 -96 -98 0
-2 20 -14 99 100 0
-2 20 -14 99 -100 0
-2 20 -14 -99 101 0
-2 20 -14 -99 -101 0
-12 4 -2 102 103 0
-12 4 -2 102 -103 0
-12 4 -2 -102 104 0
-12 4 -2 -102 -104 0
-15 -2 7 105 106 0
-15 -2 7 105 -106 0
-15 -2 7 -105 107 0
-15 -2 7 -105 -107 0
1 -16 7 108 109 0
1 -16 7 108 -109 0
1 -16 7 -108 110 0
1 -16 7 -108 -110 0
6 19 20 111 112 0
6 19 20 111 -112 0
6 19 20 -111 113 0
6 19 20 -111 -113 0
5 -17 15 114 115 0
5 -17 15 114 -115 0
5 -17 15 -114 116 0
5 -17 15 -114 -116 0
-11 12 -3 117 118 0
-11 12 -3 117 -118 0
-11 12 -3 -117 119 0
-11 12 -3 -117 -119 0
18 8 19 120 121 0
18 8 19 120 -121 0
18 8 19 -120 122 0
18 8 19 -120 -122 0
14 5 4 123 124 0
14 5 4 123 -124 0
14 5 4 -123 125 0
14 5 4 -123 -125 0
10 16 20 126 127 0
10 16 20 126 -127 0
10 16 20 -126 128 0
10 16 20 -126 -128 0
12 -5 19 129 130 0
12 -5 19 129 -130 0
12 -5 19 -129 131 0
12 -5 19 -129 -131 0
-13 -2 1 132 133 0
-13 -2 1 132 -133 0
-13 -2 1 -132 134 0
-13 -2 1 -132 -134 0
12 -16 -15 135 136 0
12 -16 -15 135 -136 0
12 -16 -15 -135 137 0
12 -16 -15 -135 -137 0
18 -14 -3 138 139 0
18 -14 -3 138 -139 0
18 -14 -3 -138 140 0
18 -14 -3 -138 -140 0
2 -4 8 141 142 0
2 -4 8 141 -142 0
2 -4 8 -141 143 0
2 -4 8 -141 -143 0
3 -5 14 144 145 0
3 -5 14 144 -145 0
3 -5 14 -144 146 0
3 -5 14 -144 -146 0
-11 -3 6 147 148 0
-11 -3 6 147 -148 0
-11 -3 6 -147 149 0
-11 -3 6 -147 -149 0
-19 -9 -13 150 151 0
-19 -9 -13 150 -151 0
-19 -9 -13 -150 152 0
-19 -9 -13 -150 -152 0
-15 12 13 153 154 0
-15 12 13 153 -154 0
-15 12 13 -153 155 0
-15 12 13 -153 -155 0
-17 9 13 156 157 0
-17 9 13 156 -157 0
-17 9 13 -156 158 0
-17 9 13 -156 -158 0
1 -7 -14 159 160 0
1 -7 -14 159 -160 0
1 -7 -14 -159 161 0
1 -7 -14 -159 -161 0
13 -20 4 162 163 0
13 -20 4 162 -163 0
13 -20 4 -162 164 0
13 -20 4 -162 -164 0
3 5 16 165 166 0
3 5 16 165 -166 0
3 5 16 -165 167 0
3 5 16 -165 -167 0
-17 16 19 168 169 0
-17 16 19 168 -169 0
-17 16 19 -168 170 0
-17 16 19 -168 -170 0
9 -10 -16 171 172 0
9 -10 -16 171 -172 0
9 -10 -16 -171 173 0
9 -10 -16 -171 -173 0
7 -18 10 174 175 0
7 -18 10 174 -175 0
7 -18 10 -174 176 0
7 -18 10 -174 -176 0
2 14 -11 177 178 0
2 14 -11 177 -178 0
2 14 -11 -177 179 0
2 14 -11 -177 -179 0
9 -14 2 180 181 0
9 -14 2 180 -181 0
9 -14 2 -180 182 0
9 -14 2 -180 -182 0
10 12 20 183 184 0
10 12 20 183 -184 0
10 12 20 -183 185 0
10 12 20 -183 -185 0
-11 12 6 186 187 0
-11 12 6 186 -187 0
-11 12 6 -186 188 0
-11 12 6 -186 -188 0
-5 -20 -11 189 190 0
-5 -20 -11 189 -190 0
-5 -20 -11 -189 191 0
-5 -20 -11 -189 -191 0
15 -8 9 192 193 0
15 -8 9 192 -193 0
15 -8 9 -192 194 0
15 -8 9 -192 -194 0
-9 11 -7 195 196 0
-9 11 -7 195 -196 0
-9 11 -7 -195 197 0
-9 11 -7 -195 -197 0
2 18 -11 198 199 0
2 18 -11 198 -199 0
2 18 -11 -198 200 0
2 18 -11 -198 -200 0
20 12 2 201 202 0
20 12 2 201 -202 0
20 12 2 -201 203 0
20 12 2 -201 -203 0
-7 15 -3 204 205 0
-7 15 -3 204 -205 0
-7 15 -3 -204 206 0
-7 15 -3 -204 -206 0
16 3 5 207 208 0
16 3 5 207 -208 0
16 3 5 -207 209 0
16 3 5 -207 -209 0
-9 12 -13 210 211 0
-9 12 -13 210 -211 0
-9 12 -13 -210 212 0
-9 12 -13 -210 -212 0
-6 -16 17 213 214 0
-6 -16 17 213 -214 0
-6 -16 17 -213 215 0
-6 -16 17 -213 -215 0
-14 -8 -10 216 217 0
-14 -8 -10 216 -217 0
-14 -8 -10 -216 218 0
-14 -8 -10 -216 -218 0
4 -12 -16 219 220 0
4 -12 -16 219 -220 0
4 -12 -16 -219 221 0
4 -12 -16 -219 -221 0
17 -3 20 222 223 0
17 -3 20 222 -223 0
17 -3 20 -222 224 0
17 -3 20 -222 -224 0
18 11 4 225 226 0
18 11 4 225 -226 0
18 11 4 -225 227 0
18 11 4 -225 -227 0
7 -5 -6 228 229 0
7 -5 -6 228 -229 0
7 -5 -6 -228 230 0
7 -5 -6 -228 -230 0
-14 8 -3 231 232 0
-14 8 -3 231 -232 0
-14 8 -3 -231 233 0
-14 8 -3 -231 -233 0
-16 -18 10 234 235 0
-16 -18 10 234 -235 0
-16 -18 10 -234 236 0
-16 -18 10 -234 -236 0
-13 20 -19 237 238 0
-13 20 -19 237 -238 0
-13 20 -19 -237 239 0
-13 20 -19 -237 -239 0
1 2 -8 240 241 0
1 2 -8 240 -241 0
1 2 -8 -240 242 0
1 2 -8 -240 -242 0
-15 9 1 243 244 0
-15 9 1 243 -244 0
-15 9 1 -243 245 0
-15 9 1 -243 -245 0
-14 -4 -9 246 247 0
-14 -4 -9 246 -247 0
-14 -4 -9 -246 248 0
-14 -4 -9 -246 -248 0
11 10 1 249 250 0
11 10 1 249 -250 0
11 10 1 -249 251 0
11 10 1 -249 -251 0
-18 -7 -2 252 253 0
-18 -7 -2 252 -253 0
-18 -7 -2 -252 254 0
-18 -7 -2 -252 -254 0
-12 7 16 255 256 0
-12 7 16 255 -256 0
-12 7 16 -255 257 0
-12 7 16 -255 -257 0
-3 5 10 258 259 0
-3 5 10 258 -259 0
-3 5 10 -258 260 0
-3 5 10 -258 -260 0
16 14 19 261 262 0
16 14 19 261 -262 0
16 14 19 -261 263 0
16 14 19 -261 -263 0
20 18 -10 264 265 0
20 18 -10 264 -265 0
20 18 -10 -264 266 0
20 18 -10 -264 -266 0
-3 11 -14 267 268 0
-3 11 -14 267 -268 0
-3 11 -14 -267 269 0
-3 11 -14 -267 -269 0
-5 13 19 270 271 0
-5 13 19 270 -271 0
-5 13 19 -270 272 0
-5 13 19 -270 -272 0
10 -7 20 273 274 0
10 -7 20 273 -274 0
10 -7 20 -273 275 0
10 -7 20 -273 -275 0
17 -6 -1 276 277 0
17 -6 -1 276 -277 0
17 -6 -1 -276 278 0
17 -6 -1 -276 -278 0
-6 -11 -20 279 280 0
-6 -11 -20 279 -280 0
-6 -11 -20 -279 281 0
-6 -11 -20 -279 -281 0
14 6 -5 282 283 0
14 6 -5 282 -283 0
14 6 -5 -282 284 0
14 6 -5 -282 -284 0
-11 19 -17 285 286 0
-11 19 -17 285 -286 0
-11 19 -17 -285 287 0
-11 19 -17 -285 -287 0
-20 -16 -6 288 289 0
-20 -16 -6 288 -289 0
-20 -16 -6 -288 290 0
-20 -16 -6 -288 -290 0
2 14 -4 291 292 0
2 14 -4 291 -292 0
2 14 -4 -291 293 0
2 14 -4 -291 -293 0
294 295 297 301 309 0
294 295 297 301 -309 0
294 295 297 -301 310 0
294 295 297 -301 -310 0
294 295 -297 302 311 0
294 295 -297 302 -311 0
294 295 -297 -302 312 0
294 295 -297 -302 -312 0
294 -295 298 303 313 0
294 -295 298 303 -313 0
294 -295 298 -303 314 0
294 -295 298 -303 -314 0
294 -295 -298 304 315 0
294 -295 -298 304 -315 0
294 -295 -298 -304 316 0
294 -295 -298 -304 -316 0
-294 296 299 305 317 0
-294 296 299 305 -317 0
-294 296 299 -305 318 0
-294 296 299 -305 -318 0
-294 296 -299 306 319 0
-294 296 -299 306 -319 0
-294 296 -299 -306 320 0
-294 296 -299 -306 -320 0
-294 -296 300 307 321 0
-294 -296 300 307 -321 0
-294 -296 300 -307 322 0
-294 -296 300 -307 -322 0
-294 -296 -300 308 323 0
-294 -296 -300 308 -323 0
-294 -296 -300 -308 324 0
-294 -296 -300 -308 -324 0
325 326 328 332 340 0
325 326 328 332 -340 0
325 326 328 -332 341 0
325 326 328 -332 -341 0
325 326 -328 333 342 0
325 326 -328 333 -342 0
325 326 -328 -333 343 0
325 326 -328 -333 -343 0
325 -326 329 334 344 0
325 -326 329 334 -344 0
325 -326 329 -334 345 0
325 -326 329 -334 -345 0
325 -326 -329 335 346 0
325 -326 -329 335 -346 0
325 -326 -329 -335 347 0
325 -326 -329 -335 -347 0
-325 327 330 336 348 0
-325 327 330 336 -348 0
-325 327 330 -336 349 0
-325 327 330 -336 -349 0
-325 327 -330 337 350 0
-325 327 -330 337 -350 0
-325 327 -330 -337 351 0
-325 327 -330 -337 -351 0
-325 -327 331 338 352 0
-325 -327 331 338 -352 0
-325 -327 331 -338 353 0
-325 -327 331 -338 -353 0
-325 -327 -331 339 354 0
-325 -327 -331 339 -354 0
-325 -327 -331 -339 355 0
-325 -327 -331 -339 -355 0
356 357 359 363 371 0
356 357 359 363 -371 0
356 357 359 -363 372 0
356 357 359 -363 -372 0
356 357 -359 364 373 0
356 357 -359 364 -373 0
356 357 -359 -364 374 0
356 357 -359 -364 -374 0
356 -357 360 365 375 0
356 -357 360 365 -375 0
356 -357 360 -365 376 0
356 -357 360 -365 -376 0
356 -357 -360 366 377 0
356 -357 -360 366 -377 0
356 -357 -360 -366 378 0
356 -357 -360 -366 -378 0
-356 358 361 367 379 0
-356 358 361 367 -379 0
-356 358 361 -367 380 0
-356 358 361 -367 -380 0
-356 358 -361 368 381 0
-356 358 -361 368 -381 0
-356 358 -361 -368 382 0
-356 358 -361 -368 -382 0
-356 -358 362 369 383 0
-356 -358 362 369 -383 0
-356 -358 362 -369 384 0
-356 -358 362 -369 -384 0
-356 -358 -362 370 385 0
-356 -358 -362 370 -385 0
-356 -358 -362 -370 386 0
-356 -358 -362 -370 -386 0

